\ENCODING=ISO-8859-1
\Problem name: ilog.cplex

Minimize
 obj1: _15#0 + _1#1 + _22#2 + _18#3 + _34#4 + _17#5 + _29#6 + _30#7 + _13#8
       + _41#9 + _43#10 + _49#11 + _27#12 + _25#13 + _4#14 + _23#15 + _33#16
       + _19#17 + _8#18 + _7#19 + _46#20 + _9#21 + _39#22 + _42#23 + _31#24
       + _26#25 + _5#26 + _37#27 + _47#28 + _6#29 + _2#30 + _50#31 + _38#32
       + _28#33 + _36#34 + _35#35 + _16#36 + _21#37 + _44#38 + _3#39 + _11#40
       + _48#41 + _10#42 + _14#43 + _32#44 + _20#45 + _12#46 + _45#47 + _40#48
       + _24#49 + LS1#50
Subject To
 _15#0:           _15#0 + LS1#50 >= 1
 _1#1:            _1#1 + LS1#50 >= 1
 _22#2:           _22#2 + LS1#50 >= 1
 _18#3:           _18#3 + LS1#50 >= 1
 _34#4:           _34#4 + LS1#50 >= 1
 _17#5:           _17#5 + LS1#50 >= 1
 _29#6:           _29#6 + LS1#50 >= 1
 _30#7:           _30#7 + LS1#50 >= 1
 _13#8:           _13#8 + LS1#50 >= 1
 _41#9:           _41#9 + LS1#50 >= 1
 _43#10:          _43#10 + LS1#50 >= 1
 _49#11:          _49#11 + LS1#50 >= 1
 _27#12:          _27#12 + LS1#50 >= 1
 _25#13:          _25#13 >= 1
 _4#14:           _4#14 >= 1
 _23#15:          _23#15 >= 1
 _33#16:          _33#16 >= 1
 _19#17:          _19#17 + LS1#50 >= 1
 _8#18:           _8#18 + LS1#50 >= 1
 _7#19:           _7#19 + LS1#50 >= 1
 _46#20:          _46#20 + LS1#50 >= 1
 _9#21:           _9#21 + LS1#50 >= 1
 _39#22:          _39#22 + LS1#50 >= 1
 _42#23:          _42#23 + LS1#50 >= 1
 _31#24:          _31#24 >= 1
 _26#25:          _26#25 >= 1
 _5#26:           _5#26 >= 1
 _37#27:          _37#27 + LS1#50 >= 1
 _47#28:          _47#28 + LS1#50 >= 1
 _6#29:           _6#29 + LS1#50 >= 1
 _2#30:           _2#30 + LS1#50 >= 1
 _50#31:          _50#31 + LS1#50 >= 1
 _38#32:          _38#32 + LS1#50 >= 1
 _28#33:          _28#33 + LS1#50 >= 1
 _36#34:          _36#34 + LS1#50  >= 1
 _35#35:          _35#35 + LS1#50 >= 1
 _16#36:          _16#36 + LS1#50 >= 1
 _21#37:          _21#37 >= 1
 _44#38:          _44#38 >= 1
 _3#39:           _3#39 + LS1#50 >= 1
 _11#40:          _11#40 + LS1#50 >= 1
 _48#41:          _48#41 >= 1
 _10#42:          _10#42 + LS1#50 >= 1
 _14#43:          _14#43 + LS1#50 >= 1
 _32#44:          _32#44 + LS1#50 >= 1
 _20#45:          _20#45 + LS1#50 >= 1
 _12#46:          _12#46 + LS1#50 >= 1
 _45#47:          _45#47 + LS1#50 >= 1
 _40#48:          _40#48 + LS1#50 >= 1
 _24#49:          _24#49 + LS1#50 >= 1
 internal502#50:  LS1#50 <= 1
 internal503#51:  LS1#50 <= 1
 internal504#52:  LS1#50 <= 1
 internal505#53:  LS1#50 <= 1
 internal506#54:  LS1#50 <= 1
 internal507#55:  LS1#50 <= 1
 internal508#56:  LS1#50 <= 1
 internal509#57:  LS1#50 <= 1
 internal510#58:  LS1#50 <= 1
 internal511#59:  LS1#50 <= 1
 internal512#60:  LS1#50 <= 1
 internal513#61:  LS1#50 <= 1
 internal514#62:  LS1#50 <= 1
 internal515#63:  LS1#50 <= 1
 internal516#64:  LS1#50 <= 1
 internal517#65:  LS1#50 <= 1
 internal518#66:  <= 1
 internal519#67:  <= 1
 internal520#68:  LS1#50 <= 1
 internal521#69:  LS1#50 <= 1
 internal522#70:  LS1#50 <= 1
 internal523#71:  LS1#50 <= 1
 internal524#72:  LS1#50 <= 1
 internal525#73:  LS1#50 <= 1
 internal526#74:  LS1#50 <= 1
 internal527#75:  LS1#50 <= 1
 internal528#76:  <= 1
 internal529#77:  <= 1
 internal530#78:  LS1#50 <= 1
 internal531#79:  LS1#50 <= 1
 internal532#80:  LS1#50 <= 1
 internal533#81:  LS1#50 <= 1
 internal534#82:  LS1#50 <= 1
 internal535#83:  LS1#50 <= 1
 internal536#84:  LS1#50 <= 1
 internal537#85:  LS1#50 <= 1
 internal538#86:  LS1#50 <= 1
 internal539#87:  LS1#50 <= 1
 internal540#88:  <= 1
 internal541#89:  LS1#50 <= 1
 internal542#90:  LS1#50 <= 1
 internal543#91:  LS1#50 <= 1
 internal544#92:  LS1#50 <= 1
 internal545#93:  LS1#50 <= 1
 internal546#94:  LS1#50 <= 1
 internal547#95:  LS1#50 <= 1
 internal548#96:  LS1#50 <= 1
 internal549#97:  LS1#50 <= 1
 internal551#98:  LS1#50 <= 1
 internal552#99:  LS1#50 <= 1
 internal553#100: LS1#50 <= 1
 internal554#101: LS1#50 <= 1
 internal555#102: LS1#50 <= 1
 internal556#103: LS1#50 <= 1
 internal557#104: LS1#50 <= 1
 internal558#105: LS1#50 <= 1
 internal559#106: LS1#50 <= 1
 internal560#107: LS1#50 <= 1
 internal561#108: LS1#50 <= 1
 internal562#109: LS1#50 <= 1
 internal563#110: LS1#50 <= 1
 internal564#111: LS1#50 <= 1
 internal565#112: LS1#50 <= 1
 internal566#113: LS1#50 <= 1
 internal567#114: LS1#50 <= 1
 internal568#115: <= 1
 internal569#116: LS1#50 <= 1
 internal570#117: LS1#50 <= 1
 internal571#118: <= 1
 internal572#119: LS1#50 <= 1
 internal573#120: LS1#50 <= 1
 internal574#121: LS1#50 <= 1
 internal575#122: LS1#50 <= 1
 internal576#123: LS1#50 <= 1
 internal577#124: LS1#50 <= 1
 internal578#125: LS1#50 <= 1
 internal579#126: LS1#50 <= 1
 internal580#127: LS1#50 <= 1
 internal581#128: LS1#50 <= 1
 internal582#129: LS1#50 <= 1
 internal583#130: LS1#50 <= 1
 internal584#131: LS1#50 <= 1
 internal585#132: LS1#50 <= 1
 internal586#133: LS1#50 <= 1
 internal587#134: LS1#50 <= 1
 internal588#135: LS1#50 <= 1
 internal589#136: LS1#50 <= 1
 internal590#137: LS1#50 <= 1
 internal591#138: LS1#50 <= 1
 internal592#139: <= 1
 internal593#140: <= 1
 internal594#141: LS1#50 <= 1
 internal595#142: LS1#50 <= 1
 internal596#143: LS1#50 <= 1
 internal597#144: LS1#50 <= 1
 internal598#145: LS1#50 <= 1
Bounds
 0 <= _15#0 <= 1
 0 <= _1#1 <= 1
 0 <= _22#2 <= 1
 0 <= _18#3 <= 1
 0 <= _34#4 <= 1
 0 <= _17#5 <= 1
 0 <= _29#6 <= 1
 0 <= _30#7 <= 1
 0 <= _13#8 <= 1
 0 <= _41#9 <= 1
 0 <= _43#10 <= 1
 0 <= _49#11 <= 1
 0 <= _27#12 <= 1
 0 <= _25#13 <= 1
 0 <= _4#14 <= 1
 0 <= _23#15 <= 1
 0 <= _33#16 <= 1
 0 <= _19#17 <= 1
 0 <= _8#18 <= 1
 0 <= _7#19 <= 1
 0 <= _46#20 <= 1
 0 <= _9#21 <= 1
 0 <= _39#22 <= 1
 0 <= _42#23 <= 1
 0 <= _31#24 <= 1
 0 <= _26#25 <= 1
 0 <= _5#26 <= 1
 0 <= _37#27 <= 1
 0 <= _47#28 <= 1
 0 <= _6#29 <= 1
 0 <= _2#30 <= 1
 0 <= _50#31 <= 1
 0 <= _38#32 <= 1
 0 <= _28#33 <= 1
 0 <= _36#34 <= 1
 0 <= _35#35 <= 1
 0 <= _16#36 <= 1
 0 <= _21#37 <= 1
 0 <= _44#38 <= 1
 0 <= _3#39 <= 1
 0 <= _11#40 <= 1
 0 <= _48#41 <= 1
 0 <= _10#42 <= 1
 0 <= _14#43 <= 1
 0 <= _32#44 <= 1
 0 <= _20#45 <= 1
 0 <= _12#46 <= 1
 0 <= _45#47 <= 1
 0 <= _40#48 <= 1
 0 <= _24#49 <= 1
 0 <= LS1#50 <= 1
End
